PROBLEM NAME: 	W5-TTP
KNAPSACK DATA TYPE: bounded strongly corr
DIMENSION:	5
NUMBER OF ITEMS: 	4
CAPACITY OF KNAPSACK: 	500
MIN SPEED: 	0.1
MAX SPEED: 	1
RENTING RATIO: 	2.5
EDGE_WEIGHT_TYPE:	CEIL_2D
NODE_COORD_SECTION	(INDEX, X, Y): 
1	0	0
2	6	-5
3	14	5
4	11	13
5	7	5
ITEMS SECTION	(INDEX, PROFIT, WEIGHT, ASSIGNED NODE NUMBER): 
1	300	400	3
2	50	200	4
3	30	40	5
4	40	2	2